# Solution for model melting_srl_ilp
# Objective value = 7.3347166268472321e+00
Z_613_6_0 0
Z_613_6_1 0
Z_613_6_2 0
Z_613_6_3 0
Z_613_6_4 1
Z_613_4_0 0
Z_613_4_1 0
Z_613_4_2 0
Z_613_4_3 0
Z_613_4_4 1
Z_613_8_0 0
Z_613_8_1 0
Z_613_8_2 0
Z_613_8_3 0
Z_613_8_4 1
Z_613_9_0 0
Z_613_9_1 0
Z_613_9_2 0
Z_613_9_3 0
Z_613_9_4 1
Z_613_7_0 0
Z_613_7_1 0
Z_613_7_2 0
Z_613_7_3 0
Z_613_7_4 1
Z_613_1_0 0
Z_613_1_1 0
Z_613_1_2 0
Z_613_1_3 0
Z_613_1_4 1
Z_613_5_0 0
Z_613_5_1 1
Z_613_5_2 0
Z_613_5_3 0
Z_613_5_4 0
Z_613_2_0 0
Z_613_2_1 0
Z_613_2_2 0
Z_613_2_3 0
Z_613_2_4 1
Z_613_3_0 0
Z_613_3_1 0
Z_613_3_2 0
Z_613_3_3 0
Z_613_3_4 1
Z_588_0_0 1
Z_588_0_1 0
Z_588_0_2 0
Z_588_0_3 0
Z_588_0_4 0
Z_588_1_0 0
Z_588_1_1 0
Z_588_1_2 1
Z_588_1_3 0
Z_588_1_4 0
Z_314_0_0 0
Z_314_0_1 1
Z_314_0_2 0
Z_314_0_3 0
Z_314_0_4 0
